1600 3200
1 2 3
1 41 2
2 3 1
2 42 2
3 4 5
3 43 1
4 5 4
4 44 5
5 6 3
5 45 5
6 7 4
6 46 5
7 8 4
7 47 3
8 9 5
8 48 5
9 10 4
9 49 5
10 11 2
10 50 1
11 12 4
11 51 4
12 13 2
12 52 3
13 14 3
13 53 5
14 15 5
14 54 1
15 16 3
15 55 2
16 17 4
16 56 2
17 18 5
17 57 1
18 19 3
18 58 2
19 20 3
19 59 4
20 21 2
20 60 3
21 22 1
21 61 4
22 23 5
22 62 2
23 24 1
23 63 1
24 25 2
24 64 4
25 26 4
25 65 3
26 27 3
26 66 5
27 28 3
27 67 4
28 29 4
28 68 3
29 30 3
29 69 1
30 31 5
30 70 3
31 32 1
31 71 5
32 33 3
32 72 5
33 34 2
33 73 5
34 35 2
34 74 3
35 36 5
35 75 3
36 37 2
36 76 2
37 38 4
37 77 5
38 39 2
38 78 1
39 40 4
39 79 5
40 80 1
41 42 5
41 81 1
42 43 4
42 82 5
43 44 5
43 83 2
44 45 3
44 84 1
45 46 4
45 85 4
46 47 2
46 86 4
47 48 2
47 87 2
48 49 3
48 88 4
49 50 2
49 89 1
50 51 5
50 90 3
51 52 3
51 91 5
52 53 4
52 92 2
53 54 4
53 93 4
54 55 2
54 94 5
55 56 3
55 95 2
56 57 3
56 96 1
57 58 1
57 97 2
58 59 2
58 98 1
59 60 3
59 99 4
60 61 3
60 100 3
61 62 1
61 101 2
62 63 4
62 102 4
63 64 1
63 103 5
64 65 2
64 104 5
65 66 3
65 105 3
66 67 4
66 106 2
67 68 5
67 107 4
68 69 3
68 108 5
69 70 1
69 109 4
70 71 3
70 110 4
71 72 3
71 111 5
72 73 2
72 112 5
73 74 4
73 113 4
74 75 1
74 114 5
75 76 1
75 115 2
76 77 1
76 116 1
77 78 2
77 117 4
78 79 3
78 118 5
79 80 2
79 119 1
80 120 4
81 82 1
81 121 3
82 83 1
82 122 1
83 84 4
83 123 1
84 85 1
84 124 3
85 86 1
85 125 5
86 87 2
86 126 1
87 88 5
87 127 3
88 89 3
88 128 4
89 90 5
89 129 4
90 91 4
90 130 1
91 92 5
91 131 5
92 93 2
92 132 1
93 94 1
93 133 2
94 95 4
94 134 2
95 96 3
95 135 4
96 97 2
96 136 4
97 98 3
97 137 1
98 99 5
98 138 2
99 100 5
99 139 3
100 101 3
100 140 1
101 102 3
101 141 5
102 103 5
102 142 2
103 104 4
103 143 4
104 105 1
104 144 5
105 106 5
105 145 1
106 107 4
106 146 1
107 108 2
107 147 4
108 109 1
108 148 5
109 110 1
109 149 5
110 111 3
110 150 3
111 112 5
111 151 3
112 113 4
112 152 5
113 114 5
113 153 2
114 115 5
114 154 5
115 116 4
115 155 4
116 117 5
116 156 4
117 118 5
117 157 3
118 119 4
118 158 3
119 120 2
119 159 4
120 160 2
121 122 5
121 161 2
122 123 2
122 162 2
123 124 1
123 163 2
124 125 5
124 164 5
125 126 5
125 165 2
126 127 5
126 166 2
127 128 1
127 167 5
128 129 1
128 168 2
129 130 2
129 169 1
130 131 2
130 170 3
131 132 2
131 171 4
132 133 3
132 172 5
133 134 2
133 173 2
134 135 2
134 174 4
135 136 5
135 175 3
136 137 2
136 176 1
137 138 2
137 177 3
138 139 4
138 178 5
139 140 4
139 179 4
140 141 3
140 180 5
141 142 2
141 181 2
142 143 1
142 182 5
143 144 5
143 183 1
144 145 4
144 184 4
145 146 1
145 185 5
146 147 4
146 186 5
147 148 5
147 187 3
148 149 2
148 188 4
149 150 2
149 189 5
150 151 1
150 190 2
151 152 4
151 191 2
152 153 2
152 192 1
153 154 1
153 193 3
154 155 4
154 194 3
155 156 2
155 195 5
156 157 4
156 196 2
157 158 4
157 197 2
158 159 2
158 198 4
159 160 5
159 199 5
160 200 1
161 162 2
161 201 1
162 163 5
162 202 4
163 164 4
163 203 5
164 165 1
164 204 1
165 166 4
165 205 1
166 167 1
166 206 3
167 168 3
167 207 2
168 169 2
168 208 5
169 170 3
169 209 5
170 171 4
170 210 1
171 172 3
171 211 5
172 173 1
172 212 5
173 174 2
173 213 2
174 175 1
174 214 5
175 176 4
175 215 2
176 177 3
176 216 1
177 178 3
177 217 2
178 179 1
178 218 3
179 180 1
179 219 3
180 181 4
180 220 1
181 182 2
181 221 1
182 183 1
182 222 2
183 184 3
183 223 2
184 185 2
184 224 5
185 186 4
185 225 1
186 187 5
186 226 2
187 188 1
187 227 4
188 189 3
188 228 1
189 190 5
189 229 3
190 191 1
190 230 2
191 192 5
191 231 2
192 193 2
192 232 3
193 194 1
193 233 2
194 195 3
194 234 3
195 196 4
195 235 1
196 197 1
196 236 1
197 198 1
197 237 2
198 199 3
198 238 3
199 200 4
199 239 4
200 240 3
201 202 2
201 241 5
202 203 4
202 242 1
203 204 3
203 243 5
204 205 3
204 244 1
205 206 2
205 245 2
206 207 5
206 246 5
207 208 3
207 247 4
208 209 4
208 248 2
209 210 3
209 249 1
210 211 4
210 250 4
211 212 2
211 251 2
212 213 1
212 252 2
213 214 4
213 253 1
214 215 4
214 254 1
215 216 1
215 255 4
216 217 5
216 256 4
217 218 3
217 257 1
218 219 4
218 258 4
219 220 4
219 259 3
220 221 2
220 260 2
221 222 4
221 261 1
222 223 4
222 262 3
223 224 1
223 263 4
224 225 4
224 264 5
225 226 3
225 265 5
226 227 5
226 266 2
227 228 4
227 267 5
228 229 4
228 268 2
229 230 1
229 269 1
230 231 2
230 270 1
231 232 1
231 271 1
232 233 5
232 272 4
233 234 5
233 273 2
234 235 2
234 274 2
235 236 5
235 275 5
236 237 1
236 276 1
237 238 2
237 277 1
238 239 1
238 278 3
239 240 1
239 279 1
240 280 5
241 242 2
241 281 1
242 243 1
242 282 3
243 244 2
243 283 1
244 245 4
244 284 3
245 246 4
245 285 1
246 247 2
246 286 1
247 248 4
247 287 5
248 249 2
248 288 3
249 250 2
249 289 2
250 251 1
250 290 1
251 252 5
251 291 2
252 253 2
252 292 4
253 254 2
253 293 1
254 255 2
254 294 1
255 256 5
255 295 3
256 257 1
256 296 5
257 258 5
257 297 3
258 259 3
258 298 1
259 260 3
259 299 2
260 261 2
260 300 4
261 262 1
261 301 2
262 263 1
262 302 4
263 264 2
263 303 2
264 265 3
264 304 2
265 266 1
265 305 2
266 267 3
266 306 2
267 268 5
267 307 3
268 269 3
268 308 3
269 270 5
269 309 1
270 271 4
270 310 5
271 272 3
271 311 1
272 273 2
272 312 5
273 274 2
273 313 2
274 275 3
274 314 1
275 276 5
275 315 3
276 277 3
276 316 4
277 278 3
277 317 4
278 279 1
278 318 4
279 280 2
279 319 1
280 320 5
281 282 4
281 321 5
282 283 3
282 322 5
283 284 2
283 323 1
284 285 4
284 324 1
285 286 2
285 325 4
286 287 1
286 326 1
287 288 3
287 327 4
288 289 3
288 328 4
289 290 5
289 329 3
290 291 5
290 330 2
291 292 4
291 331 4
292 293 2
292 332 3
293 294 4
293 333 2
294 295 5
294 334 4
295 296 2
295 335 1
296 297 5
296 336 4
297 298 4
297 337 3
298 299 3
298 338 3
299 300 2
299 339 3
300 301 3
300 340 4
301 302 1
301 341 2
302 303 1
302 342 5
303 304 4
303 343 5
304 305 3
304 344 1
305 306 3
305 345 2
306 307 3
306 346 3
307 308 2
307 347 1
308 309 5
308 348 3
309 310 3
309 349 4
310 311 2
310 350 1
311 312 5
311 351 2
312 313 2
312 352 5
313 314 2
313 353 2
314 315 5
314 354 4
315 316 4
315 355 2
316 317 4
316 356 5
317 318 3
317 357 1
318 319 2
318 358 3
319 320 1
319 359 5
320 360 5
321 322 2
321 361 5
322 323 2
322 362 2
323 324 5
323 363 5
324 325 1
324 364 5
325 326 4
325 365 4
326 327 5
326 366 1
327 328 4
327 367 2
328 329 5
328 368 5
329 330 1
329 369 2
330 331 1
330 370 2
331 332 4
331 371 5
332 333 5
332 372 2
333 334 5
333 373 1
334 335 2
334 374 5
335 336 2
335 375 3
336 337 3
336 376 5
337 338 2
337 377 1
338 339 1
338 378 5
339 340 1
339 379 3
340 341 5
340 380 1
341 342 4
341 381 1
342 343 2
342 382 5
343 344 3
343 383 4
344 345 5
344 384 5
345 346 3
345 385 2
346 347 4
346 386 3
347 348 4
347 387 4
348 349 5
348 388 3
349 350 2
349 389 4
350 351 3
350 390 4
351 352 1
351 391 2
352 353 1
352 392 1
353 354 1
353 393 1
354 355 3
354 394 3
355 356 2
355 395 5
356 357 4
356 396 3
357 358 4
357 397 2
358 359 1
358 398 4
359 360 3
359 399 2
360 400 4
361 362 2
361 401 5
362 363 5
362 402 3
363 364 1
363 403 5
364 365 4
364 404 1
365 366 3
365 405 2
366 367 5
366 406 1
367 368 4
367 407 1
368 369 2
368 408 4
369 370 4
369 409 2
370 371 1
370 410 4
371 372 4
371 411 4
372 373 3
372 412 4
373 374 5
373 413 4
374 375 5
374 414 5
375 376 3
375 415 5
376 377 3
376 416 4
377 378 2
377 417 1
378 379 1
378 418 3
379 380 5
379 419 3
380 381 3
380 420 3
381 382 3
381 421 1
382 383 4
382 422 1
383 384 5
383 423 4
384 385 2
384 424 1
385 386 1
385 425 2
386 387 4
386 426 2
387 388 4
387 427 1
388 389 4
388 428 2
389 390 2
389 429 4
390 391 1
390 430 1
391 392 5
391 431 5
392 393 3
392 432 3
393 394 4
393 433 4
394 395 5
394 434 5
395 396 3
395 435 4
396 397 5
396 436 5
397 398 1
397 437 5
398 399 2
398 438 4
399 400 2
399 439 5
400 440 3
401 402 5
401 441 1
402 403 1
402 442 2
403 404 2
403 443 3
404 405 5
404 444 2
405 406 3
405 445 1
406 407 2
406 446 3
407 408 3
407 447 5
408 409 1
408 448 1
409 410 1
409 449 4
410 411 2
410 450 2
411 412 3
411 451 2
412 413 5
412 452 3
413 414 3
413 453 3
414 415 4
414 454 2
415 416 1
415 455 5
416 417 4
416 456 5
417 418 2
417 457 3
418 419 3
418 458 2
419 420 5
419 459 2
420 421 2
420 460 3
421 422 2
421 461 4
422 423 3
422 462 5
423 424 3
423 463 4
424 425 3
424 464 4
425 426 3
425 465 5
426 427 3
426 466 4
427 428 3
427 467 2
428 429 5
428 468 5
429 430 4
429 469 4
430 431 2
430 470 3
431 432 5
431 471 1
432 433 1
432 472 5
433 434 5
433 473 1
434 435 2
434 474 1
435 436 5
435 475 3
436 437 4
436 476 2
437 438 4
437 477 4
438 439 2
438 478 3
439 440 3
439 479 4
440 480 2
441 442 4
441 481 5
442 443 3
442 482 3
443 444 5
443 483 2
444 445 3
444 484 4
445 446 1
445 485 4
446 447 5
446 486 1
447 448 3
447 487 2
448 449 3
448 488 1
449 450 5
449 489 5
450 451 2
450 490 5
451 452 4
451 491 2
452 453 1
452 492 4
453 454 5
453 493 5
454 455 5
454 494 3
455 456 2
455 495 4
456 457 2
456 496 4
457 458 4
457 497 4
458 459 2
458 498 4
459 460 1
459 499 4
460 461 2
460 500 3
461 462 4
461 501 2
462 463 5
462 502 4
463 464 1
463 503 1
464 465 4
464 504 3
465 466 3
465 505 1
466 467 3
466 506 2
467 468 1
467 507 5
468 469 3
468 508 1
469 470 1
469 509 2
470 471 5
470 510 3
471 472 2
471 511 1
472 473 4
472 512 1
473 474 5
473 513 2
474 475 3
474 514 5
475 476 3
475 515 3
476 477 4
476 516 1
477 478 1
477 517 1
478 479 1
478 518 1
479 480 5
479 519 3
480 520 5
481 482 4
481 521 5
482 483 2
482 522 4
483 484 3
483 523 5
484 485 4
484 524 2
485 486 4
485 525 5
486 487 4
486 526 4
487 488 3
487 527 4
488 489 5
488 528 2
489 490 3
489 529 4
490 491 2
490 530 1
491 492 4
491 531 4
492 493 4
492 532 1
493 494 5
493 533 1
494 495 4
494 534 4
495 496 4
495 535 4
496 497 5
496 536 1
497 498 5
497 537 2
498 499 1
498 538 5
499 500 4
499 539 3
500 501 2
500 540 3
501 502 2
501 541 5
502 503 5
502 542 4
503 504 1
503 543 3
504 505 2
504 544 2
505 506 3
505 545 4
506 507 4
506 546 1
507 508 5
507 547 2
508 509 3
508 548 5
509 510 2
509 549 3
510 511 3
510 550 4
511 512 4
511 551 5
512 513 3
512 552 3
513 514 4
513 553 1
514 515 5
514 554 3
515 516 4
515 555 1
516 517 2
516 556 1
517 518 2
517 557 1
518 519 2
518 558 3
519 520 3
519 559 5
520 560 5
521 522 5
521 561 5
522 523 4
522 562 3
523 524 4
523 563 5
524 525 2
524 564 2
525 526 1
525 565 5
526 527 3
526 566 4
527 528 3
527 567 4
528 529 4
528 568 3
529 530 2
529 569 1
530 531 2
530 570 2
531 532 1
531 571 2
532 533 1
532 572 3
533 534 5
533 573 3
534 535 2
534 574 3
535 536 3
535 575 2
536 537 3
536 576 5
537 538 3
537 577 4
538 539 4
538 578 3
539 540 1
539 579 4
540 541 4
540 580 3
541 542 2
541 581 3
542 543 5
542 582 2
543 544 4
543 583 3
544 545 3
544 584 2
545 546 4
545 585 4
546 547 4
546 586 5
547 548 2
547 587 2
548 549 1
548 588 1
549 550 2
549 589 5
550 551 4
550 590 2
551 552 1
551 591 5
552 553 2
552 592 5
553 554 4
553 593 2
554 555 2
554 594 1
555 556 5
555 595 3
556 557 5
556 596 5
557 558 3
557 597 4
558 559 2
558 598 3
559 560 4
559 599 1
560 600 4
561 562 2
561 601 4
562 563 2
562 602 1
563 564 4
563 603 2
564 565 2
564 604 4
565 566 5
565 605 3
566 567 4
566 606 3
567 568 4
567 607 2
568 569 4
568 608 3
569 570 3
569 609 2
570 571 5
570 610 5
571 572 3
571 611 1
572 573 3
572 612 3
573 574 1
573 613 2
574 575 1
574 614 5
575 576 5
575 615 3
576 577 2
576 616 1
577 578 3
577 617 4
578 579 4
578 618 2
579 580 1
579 619 2
580 581 5
580 620 5
581 582 5
581 621 2
582 583 3
582 622 4
583 584 2
583 623 1
584 585 1
584 624 3
585 586 5
585 625 2
586 587 1
586 626 3
587 588 3
587 627 2
588 589 1
588 628 3
589 590 2
589 629 5
590 591 5
590 630 2
591 592 4
591 631 1
592 593 4
592 632 5
593 594 5
593 633 5
594 595 2
594 634 3
595 596 1
595 635 5
596 597 3
596 636 2
597 598 4
597 637 2
598 599 1
598 638 1
599 600 2
599 639 4
600 640 2
601 602 5
601 641 3
602 603 2
602 642 3
603 604 5
603 643 2
604 605 1
604 644 5
605 606 2
605 645 4
606 607 2
606 646 1
607 608 1
607 647 2
608 609 4
608 648 3
609 610 1
609 649 1
610 611 2
610 650 4
611 612 1
611 651 1
612 613 1
612 652 1
613 614 2
613 653 3
614 615 1
614 654 3
615 616 3
615 655 3
616 617 5
616 656 3
617 618 5
617 657 3
618 619 4
618 658 5
619 620 2
619 659 5
620 621 1
620 660 1
621 622 3
621 661 1
622 623 3
622 662 1
623 624 5
623 663 4
624 625 4
624 664 3
625 626 2
625 665 4
626 627 5
626 666 4
627 628 4
627 667 4
628 629 3
628 668 1
629 630 3
629 669 5
630 631 3
630 670 1
631 632 2
631 671 3
632 633 5
632 672 3
633 634 5
633 673 5
634 635 1
634 674 1
635 636 5
635 675 4
636 637 2
636 676 5
637 638 5
637 677 2
638 639 2
638 678 2
639 640 5
639 679 2
640 680 4
641 642 2
641 681 4
642 643 4
642 682 1
643 644 5
643 683 3
644 645 5
644 684 5
645 646 1
645 685 1
646 647 3
646 686 5
647 648 3
647 687 3
648 649 3
648 688 3
649 650 4
649 689 4
650 651 3
650 690 5
651 652 1
651 691 5
652 653 5
652 692 2
653 654 4
653 693 3
654 655 4
654 694 3
655 656 5
655 695 5
656 657 2
656 696 2
657 658 1
657 697 4
658 659 3
658 698 3
659 660 5
659 699 3
660 661 5
660 700 5
661 662 3
661 701 5
662 663 4
662 702 4
663 664 4
663 703 2
664 665 3
664 704 3
665 666 1
665 705 3
666 667 5
666 706 3
667 668 5
667 707 1
668 669 4
668 708 5
669 670 2
669 709 4
670 671 2
670 710 5
671 672 5
671 711 3
672 673 2
672 712 2
673 674 3
673 713 2
674 675 4
674 714 3
675 676 2
675 715 4
676 677 2
676 716 2
677 678 1
677 717 5
678 679 4
678 718 3
679 680 2
679 719 2
680 720 2
681 682 3
681 721 3
682 683 5
682 722 3
683 684 1
683 723 5
684 685 3
684 724 4
685 686 5
685 725 5
686 687 2
686 726 2
687 688 3
687 727 2
688 689 1
688 728 2
689 690 4
689 729 4
690 691 3
690 730 1
691 692 2
691 731 1
692 693 3
692 732 2
693 694 1
693 733 3
694 695 2
694 734 3
695 696 1
695 735 1
696 697 5
696 736 3
697 698 4
697 737 1
698 699 5
698 738 2
699 700 4
699 739 3
700 701 4
700 740 4
701 702 5
701 741 3
702 703 4
702 742 5
703 704 1
703 743 3
704 705 5
704 744 3
705 706 3
705 745 2
706 707 2
706 746 3
707 708 3
707 747 1
708 709 3
708 748 5
709 710 2
709 749 1
710 711 1
710 750 1
711 712 1
711 751 1
712 713 5
712 752 2
713 714 5
713 753 1
714 715 4
714 754 5
715 716 1
715 755 2
716 717 3
716 756 1
717 718 2
717 757 4
718 719 5
718 758 4
719 720 1
719 759 5
720 760 5
721 722 2
721 761 4
722 723 3
722 762 4
723 724 3
723 763 5
724 725 2
724 764 3
725 726 3
725 765 1
726 727 2
726 766 3
727 728 1
727 767 1
728 729 1
728 768 3
729 730 4
729 769 2
730 731 4
730 770 1
731 732 2
731 771 3
732 733 4
732 772 3
733 734 5
733 773 3
734 735 1
734 774 4
735 736 4
735 775 2
736 737 2
736 776 3
737 738 3
737 777 4
738 739 4
738 778 3
739 740 1
739 779 5
740 741 5
740 780 2
741 742 2
741 781 1
742 743 2
742 782 1
743 744 4
743 783 4
744 745 2
744 784 1
745 746 2
745 785 2
746 747 5
746 786 1
747 748 2
747 787 4
748 749 2
748 788 1
749 750 5
749 789 3
750 751 2
750 790 2
751 752 4
751 791 4
752 753 3
752 792 2
753 754 2
753 793 5
754 755 4
754 794 2
755 756 5
755 795 5
756 757 5
756 796 2
757 758 5
757 797 3
758 759 2
758 798 5
759 760 3
759 799 3
760 800 2
761 762 1
761 801 1
762 763 2
762 802 5
763 764 5
763 803 1
764 765 2
764 804 1
765 766 3
765 805 4
766 767 2
766 806 2
767 768 5
767 807 5
768 769 5
768 808 1
769 770 5
769 809 4
770 771 2
770 810 2
771 772 3
771 811 5
772 773 1
772 812 5
773 774 5
773 813 5
774 775 2
774 814 4
775 776 5
775 815 3
776 777 4
776 816 1
777 778 5
777 817 3
778 779 3
778 818 1
779 780 4
779 819 5
780 781 5
780 820 2
781 782 4
781 821 5
782 783 4
782 822 2
783 784 3
783 823 2
784 785 2
784 824 3
785 786 2
785 825 1
786 787 1
786 826 4
787 788 4
787 827 4
788 789 2
788 828 1
789 790 3
789 829 4
790 791 4
790 830 1
791 792 1
791 831 3
792 793 4
792 832 3
793 794 2
793 833 4
794 795 5
794 834 1
795 796 2
795 835 2
796 797 3
796 836 5
797 798 1
797 837 2
798 799 4
798 838 2
799 800 5
799 839 3
800 840 5
801 802 2
801 841 4
802 803 5
802 842 2
803 804 1
803 843 4
804 805 5
804 844 4
805 806 2
805 845 1
806 807 2
806 846 1
807 808 3
807 847 4
808 809 2
808 848 2
809 810 4
809 849 3
810 811 3
810 850 4
811 812 3
811 851 3
812 813 4
812 852 3
813 814 3
813 853 2
814 815 2
814 854 2
815 816 5
815 855 4
816 817 2
816 856 4
817 818 3
817 857 5
818 819 1
818 858 2
819 820 2
819 859 3
820 821 1
820 860 3
821 822 2
821 861 4
822 823 5
822 862 2
823 824 1
823 863 3
824 825 1
824 864 5
825 826 2
825 865 1
826 827 2
826 866 4
827 828 5
827 867 2
828 829 3
828 868 5
829 830 3
829 869 4
830 831 1
830 870 3
831 832 2
831 871 3
832 833 4
832 872 2
833 834 4
833 873 5
834 835 4
834 874 1
835 836 4
835 875 5
836 837 5
836 876 2
837 838 4
837 877 1
838 839 5
838 878 3
839 840 1
839 879 1
840 880 4
841 842 2
841 881 5
842 843 1
842 882 4
843 844 4
843 883 1
844 845 5
844 884 1
845 846 5
845 885 3
846 847 3
846 886 3
847 848 5
847 887 5
848 849 2
848 888 5
849 850 5
849 889 4
850 851 3
850 890 3
851 852 1
851 891 1
852 853 1
852 892 4
853 854 4
853 893 2
854 855 5
854 894 5
855 856 1
855 895 2
856 857 4
856 896 2
857 858 5
857 897 4
858 859 2
858 898 1
859 860 3
859 899 5
860 861 4
860 900 1
861 862 1
861 901 5
862 863 3
862 902 1
863 864 1
863 903 4
864 865 4
864 904 1
865 866 2
865 905 2
866 867 1
866 906 1
867 868 2
867 907 3
868 869 4
868 908 3
869 870 5
869 909 2
870 871 3
870 910 3
871 872 5
871 911 2
872 873 4
872 912 5
873 874 2
873 913 5
874 875 2
874 914 4
875 876 3
875 915 3
876 877 1
876 916 1
877 878 1
877 917 5
878 879 2
878 918 4
879 880 5
879 919 1
880 920 1
881 882 3
881 921 4
882 883 5
882 922 5
883 884 2
883 923 4
884 885 2
884 924 3
885 886 2
885 925 3
886 887 4
886 926 5
887 888 5
887 927 4
888 889 4
888 928 1
889 890 4
889 929 1
890 891 2
890 930 1
891 892 3
891 931 5
892 893 3
892 932 4
893 894 3
893 933 4
894 895 2
894 934 1
895 896 2
895 935 2
896 897 1
896 936 1
897 898 2
897 937 2
898 899 5
898 938 3
899 900 1
899 939 3
900 901 4
900 940 4
901 902 4
901 941 5
902 903 5
902 942 5
903 904 1
903 943 3
904 905 2
904 944 4
905 906 5
905 945 2
906 907 2
906 946 5
907 908 4
907 947 2
908 909 2
908 948 5
909 910 2
909 949 3
910 911 5
910 950 1
911 912 1
911 951 2
912 913 4
912 952 1
913 914 5
913 953 2
914 915 2
914 954 5
915 916 5
915 955 5
916 917 1
916 956 4
917 918 5
917 957 4
918 919 2
918 958 4
919 920 3
919 959 5
920 960 5
921 922 3
921 961 5
922 923 2
922 962 2
923 924 3
923 963 5
924 925 2
924 964 5
925 926 4
925 965 5
926 927 1
926 966 2
927 928 2
927 967 3
928 929 5
928 968 1
929 930 2
929 969 4
930 931 1
930 970 4
931 932 3
931 971 3
932 933 3
932 972 1
933 934 3
933 973 1
934 935 2
934 974 3
935 936 2
935 975 2
936 937 4
936 976 5
937 938 4
937 977 2
938 939 3
938 978 5
939 940 4
939 979 5
940 941 4
940 980 3
941 942 1
941 981 4
942 943 4
942 982 2
943 944 5
943 983 3
944 945 2
944 984 1
945 946 2
945 985 1
946 947 2
946 986 3
947 948 2
947 987 1
948 949 2
948 988 5
949 950 3
949 989 1
950 951 5
950 990 1
951 952 1
951 991 2
952 953 2
952 992 5
953 954 2
953 993 2
954 955 1
954 994 2
955 956 3
955 995 5
956 957 3
956 996 2
957 958 2
957 997 1
958 959 3
958 998 1
959 960 3
959 999 2
960 1000 5
961 962 3
961 1001 2
962 963 3
962 1002 2
963 964 3
963 1003 2
964 965 2
964 1004 2
965 966 2
965 1005 1
966 967 2
966 1006 1
967 968 4
967 1007 4
968 969 2
968 1008 5
969 970 1
969 1009 3
970 971 3
970 1010 3
971 972 1
971 1011 1
972 973 1
972 1012 2
973 974 3
973 1013 2
974 975 5
974 1014 2
975 976 4
975 1015 2
976 977 4
976 1016 4
977 978 3
977 1017 4
978 979 1
978 1018 4
979 980 2
979 1019 2
980 981 3
980 1020 3
981 982 1
981 1021 4
982 983 1
982 1022 5
983 984 1
983 1023 1
984 985 5
984 1024 2
985 986 2
985 1025 1
986 987 4
986 1026 5
987 988 3
987 1027 1
988 989 3
988 1028 2
989 990 1
989 1029 3
990 991 3
990 1030 5
991 992 1
991 1031 4
992 993 2
992 1032 3
993 994 3
993 1033 2
994 995 4
994 1034 5
995 996 1
995 1035 2
996 997 2
996 1036 2
997 998 5
997 1037 4
998 999 2
998 1038 5
999 1000 2
999 1039 2
1000 1040 5
1001 1002 3
1001 1041 3
1002 1003 1
1002 1042 2
1003 1004 1
1003 1043 4
1004 1005 5
1004 1044 2
1005 1006 3
1005 1045 3
1006 1007 3
1006 1046 2
1007 1008 2
1007 1047 2
1008 1009 5
1008 1048 4
1009 1010 1
1009 1049 2
1010 1011 5
1010 1050 2
1011 1012 3
1011 1051 1
1012 1013 2
1012 1052 5
1013 1014 3
1013 1053 4
1014 1015 5
1014 1054 5
1015 1016 1
1015 1055 1
1016 1017 5
1016 1056 1
1017 1018 2
1017 1057 3
1018 1019 1
1018 1058 5
1019 1020 4
1019 1059 5
1020 1021 1
1020 1060 4
1021 1022 2
1021 1061 5
1022 1023 3
1022 1062 1
1023 1024 1
1023 1063 4
1024 1025 1
1024 1064 4
1025 1026 4
1025 1065 1
1026 1027 5
1026 1066 2
1027 1028 3
1027 1067 3
1028 1029 5
1028 1068 2
1029 1030 4
1029 1069 3
1030 1031 5
1030 1070 5
1031 1032 3
1031 1071 4
1032 1033 3
1032 1072 1
1033 1034 2
1033 1073 5
1034 1035 5
1034 1074 5
1035 1036 2
1035 1075 2
1036 1037 4
1036 1076 4
1037 1038 1
1037 1077 4
1038 1039 5
1038 1078 5
1039 1040 2
1039 1079 5
1040 1080 4
1041 1042 5
1041 1081 1
1042 1043 4
1042 1082 3
1043 1044 2
1043 1083 4
1044 1045 2
1044 1084 4
1045 1046 5
1045 1085 4
1046 1047 3
1046 1086 3
1047 1048 5
1047 1087 3
1048 1049 3
1048 1088 4
1049 1050 1
1049 1089 3
1050 1051 5
1050 1090 1
1051 1052 5
1051 1091 1
1052 1053 1
1052 1092 4
1053 1054 4
1053 1093 5
1054 1055 2
1054 1094 3
1055 1056 1
1055 1095 4
1056 1057 4
1056 1096 1
1057 1058 1
1057 1097 1
1058 1059 3
1058 1098 3
1059 1060 1
1059 1099 4
1060 1061 4
1060 1100 3
1061 1062 3
1061 1101 4
1062 1063 5
1062 1102 4
1063 1064 5
1063 1103 3
1064 1065 3
1064 1104 5
1065 1066 5
1065 1105 1
1066 1067 2
1066 1106 1
1067 1068 1
1067 1107 2
1068 1069 5
1068 1108 2
1069 1070 2
1069 1109 3
1070 1071 1
1070 1110 1
1071 1072 3
1071 1111 5
1072 1073 2
1072 1112 2
1073 1074 1
1073 1113 3
1074 1075 5
1074 1114 4
1075 1076 4
1075 1115 1
1076 1077 4
1076 1116 3
1077 1078 1
1077 1117 2
1078 1079 5
1078 1118 4
1079 1080 5
1079 1119 2
1080 1120 3
1081 1082 5
1081 1121 4
1082 1083 4
1082 1122 1
1083 1084 2
1083 1123 1
1084 1085 1
1084 1124 5
1085 1086 3
1085 1125 5
1086 1087 1
1086 1126 5
1087 1088 2
1087 1127 5
1088 1089 5
1088 1128 2
1089 1090 3
1089 1129 5
1090 1091 4
1090 1130 5
1091 1092 5
1091 1131 4
1092 1093 1
1092 1132 3
1093 1094 3
1093 1133 4
1094 1095 2
1094 1134 4
1095 1096 5
1095 1135 1
1096 1097 1
1096 1136 1
1097 1098 1
1097 1137 2
1098 1099 4
1098 1138 5
1099 1100 4
1099 1139 3
1100 1101 2
1100 1140 1
1101 1102 2
1101 1141 1
1102 1103 1
1102 1142 4
1103 1104 2
1103 1143 4
1104 1105 3
1104 1144 2
1105 1106 5
1105 1145 5
1106 1107 3
1106 1146 4
1107 1108 5
1107 1147 4
1108 1109 3
1108 1148 5
1109 1110 1
1109 1149 3
1110 1111 3
1110 1150 4
1111 1112 1
1111 1151 3
1112 1113 1
1112 1152 3
1113 1114 5
1113 1153 3
1114 1115 1
1114 1154 2
1115 1116 5
1115 1155 3
1116 1117 5
1116 1156 1
1117 1118 2
1117 1157 2
1118 1119 2
1118 1158 5
1119 1120 5
1119 1159 3
1120 1160 1
1121 1122 5
1121 1161 4
1122 1123 2
1122 1162 3
1123 1124 3
1123 1163 4
1124 1125 3
1124 1164 2
1125 1126 3
1125 1165 3
1126 1127 1
1126 1166 3
1127 1128 2
1127 1167 4
1128 1129 2
1128 1168 5
1129 1130 3
1129 1169 2
1130 1131 1
1130 1170 1
1131 1132 3
1131 1171 1
1132 1133 2
1132 1172 3
1133 1134 4
1133 1173 1
1134 1135 5
1134 1174 1
1135 1136 3
1135 1175 5
1136 1137 4
1136 1176 2
1137 1138 2
1137 1177 1
1138 1139 2
1138 1178 3
1139 1140 1
1139 1179 5
1140 1141 3
1140 1180 5
1141 1142 2
1141 1181 1
1142 1143 2
1142 1182 1
1143 1144 3
1143 1183 4
1144 1145 2
1144 1184 3
1145 1146 1
1145 1185 2
1146 1147 4
1146 1186 2
1147 1148 3
1147 1187 1
1148 1149 3
1148 1188 1
1149 1150 5
1149 1189 5
1150 1151 3
1150 1190 5
1151 1152 1
1151 1191 5
1152 1153 4
1152 1192 3
1153 1154 3
1153 1193 3
1154 1155 4
1154 1194 4
1155 1156 4
1155 1195 2
1156 1157 2
1156 1196 3
1157 1158 3
1157 1197 3
1158 1159 4
1158 1198 4
1159 1160 3
1159 1199 3
1160 1200 1
1161 1162 3
1161 1201 2
1162 1163 2
1162 1202 2
1163 1164 4
1163 1203 4
1164 1165 3
1164 1204 1
1165 1166 5
1165 1205 2
1166 1167 1
1166 1206 4
1167 1168 4
1167 1207 1
1168 1169 1
1168 1208 4
1169 1170 3
1169 1209 4
1170 1171 4
1170 1210 4
1171 1172 3
1171 1211 4
1172 1173 4
1172 1212 5
1173 1174 5
1173 1213 1
1174 1175 2
1174 1214 4
1175 1176 1
1175 1215 2
1176 1177 3
1176 1216 4
1177 1178 4
1177 1217 4
1178 1179 1
1178 1218 1
1179 1180 2
1179 1219 2
1180 1181 1
1180 1220 3
1181 1182 3
1181 1221 5
1182 1183 1
1182 1222 4
1183 1184 3
1183 1223 4
1184 1185 1
1184 1224 3
1185 1186 1
1185 1225 4
1186 1187 5
1186 1226 4
1187 1188 2
1187 1227 1
1188 1189 2
1188 1228 3
1189 1190 2
1189 1229 2
1190 1191 3
1190 1230 1
1191 1192 4
1191 1231 3
1192 1193 4
1192 1232 1
1193 1194 3
1193 1233 3
1194 1195 4
1194 1234 3
1195 1196 5
1195 1235 1
1196 1197 5
1196 1236 4
1197 1198 5
1197 1237 5
1198 1199 4
1198 1238 3
1199 1200 2
1199 1239 3
1200 1240 1
1201 1202 4
1201 1241 3
1202 1203 3
1202 1242 5
1203 1204 2
1203 1243 3
1204 1205 2
1204 1244 5
1205 1206 5
1205 1245 5
1206 1207 3
1206 1246 3
1207 1208 3
1207 1247 2
1208 1209 1
1208 1248 1
1209 1210 1
1209 1249 2
1210 1211 1
1210 1250 3
1211 1212 5
1211 1251 3
1212 1213 3
1212 1252 3
1213 1214 1
1213 1253 1
1214 1215 5
1214 1254 1
1215 1216 1
1215 1255 3
1216 1217 5
1216 1256 3
1217 1218 5
1217 1257 3
1218 1219 4
1218 1258 1
1219 1220 4
1219 1259 3
1220 1221 2
1220 1260 4
1221 1222 4
1221 1261 1
1222 1223 2
1222 1262 2
1223 1224 2
1223 1263 1
1224 1225 2
1224 1264 1
1225 1226 1
1225 1265 3
1226 1227 1
1226 1266 1
1227 1228 5
1227 1267 5
1228 1229 5
1228 1268 2
1229 1230 2
1229 1269 2
1230 1231 4
1230 1270 1
1231 1232 4
1231 1271 3
1232 1233 1
1232 1272 5
1233 1234 4
1233 1273 5
1234 1235 2
1234 1274 3
1235 1236 1
1235 1275 3
1236 1237 4
1236 1276 2
1237 1238 2
1237 1277 1
1238 1239 2
1238 1278 3
1239 1240 3
1239 1279 5
1240 1280 4
1241 1242 1
1241 1281 1
1242 1243 1
1242 1282 2
1243 1244 4
1243 1283 1
1244 1245 3
1244 1284 3
1245 1246 3
1245 1285 3
1246 1247 2
1246 1286 2
1247 1248 5
1247 1287 5
1248 1249 5
1248 1288 1
1249 1250 2
1249 1289 5
1250 1251 3
1250 1290 4
1251 1252 5
1251 1291 4
1252 1253 5
1252 1292 2
1253 1254 4
1253 1293 1
1254 1255 5
1254 1294 1
1255 1256 3
1255 1295 1
1256 1257 3
1256 1296 2
1257 1258 4
1257 1297 3
1258 1259 4
1258 1298 3
1259 1260 3
1259 1299 3
1260 1261 1
1260 1300 2
1261 1262 2
1261 1301 2
1262 1263 1
1262 1302 4
1263 1264 5
1263 1303 2
1264 1265 1
1264 1304 1
1265 1266 4
1265 1305 4
1266 1267 5
1266 1306 3
1267 1268 5
1267 1307 2
1268 1269 2
1268 1308 4
1269 1270 4
1269 1309 4
1270 1271 2
1270 1310 4
1271 1272 5
1271 1311 4
1272 1273 3
1272 1312 3
1273 1274 4
1273 1313 4
1274 1275 1
1274 1314 4
1275 1276 1
1275 1315 3
1276 1277 2
1276 1316 5
1277 1278 4
1277 1317 5
1278 1279 4
1278 1318 4
1279 1280 4
1279 1319 4
1280 1320 5
1281 1282 2
1281 1321 5
1282 1283 4
1282 1322 1
1283 1284 2
1283 1323 4
1284 1285 3
1284 1324 4
1285 1286 3
1285 1325 1
1286 1287 4
1286 1326 2
1287 1288 1
1287 1327 4
1288 1289 5
1288 1328 5
1289 1290 4
1289 1329 1
1290 1291 3
1290 1330 1
1291 1292 2
1291 1331 1
1292 1293 1
1292 1332 1
1293 1294 1
1293 1333 5
1294 1295 2
1294 1334 4
1295 1296 4
1295 1335 5
1296 1297 2
1296 1336 3
1297 1298 2
1297 1337 5
1298 1299 4
1298 1338 3
1299 1300 1
1299 1339 4
1300 1301 3
1300 1340 4
1301 1302 2
1301 1341 3
1302 1303 1
1302 1342 1
1303 1304 5
1303 1343 2
1304 1305 2
1304 1344 4
1305 1306 2
1305 1345 1
1306 1307 3
1306 1346 5
1307 1308 3
1307 1347 3
1308 1309 2
1308 1348 1
1309 1310 2
1309 1349 1
1310 1311 4
1310 1350 4
1311 1312 5
1311 1351 4
1312 1313 4
1312 1352 2
1313 1314 4
1313 1353 1
1314 1315 2
1314 1354 2
1315 1316 5
1315 1355 1
1316 1317 4
1316 1356 4
1317 1318 5
1317 1357 2
1318 1319 1
1318 1358 4
1319 1320 4
1319 1359 1
1320 1360 4
1321 1322 2
1321 1361 1
1322 1323 1
1322 1362 5
1323 1324 5
1323 1363 3
1324 1325 3
1324 1364 4
1325 1326 3
1325 1365 3
1326 1327 2
1326 1366 3
1327 1328 1
1327 1367 3
1328 1329 5
1328 1368 5
1329 1330 4
1329 1369 3
1330 1331 4
1330 1370 5
1331 1332 2
1331 1371 3
1332 1333 4
1332 1372 2
1333 1334 5
1333 1373 1
1334 1335 4
1334 1374 3
1335 1336 5
1335 1375 1
1336 1337 5
1336 1376 3
1337 1338 3
1337 1377 4
1338 1339 4
1338 1378 2
1339 1340 4
1339 1379 4
1340 1341 3
1340 1380 4
1341 1342 1
1341 1381 3
1342 1343 5
1342 1382 3
1343 1344 5
1343 1383 5
1344 1345 4
1344 1384 1
1345 1346 2
1345 1385 5
1346 1347 1
1346 1386 1
1347 1348 1
1347 1387 5
1348 1349 4
1348 1388 3
1349 1350 1
1349 1389 1
1350 1351 1
1350 1390 3
1351 1352 3
1351 1391 2
1352 1353 2
1352 1392 2
1353 1354 1
1353 1393 2
1354 1355 1
1354 1394 5
1355 1356 2
1355 1395 2
1356 1357 3
1356 1396 1
1357 1358 5
1357 1397 2
1358 1359 4
1358 1398 1
1359 1360 3
1359 1399 2
1360 1400 2
1361 1362 3
1361 1401 4
1362 1363 1
1362 1402 5
1363 1364 1
1363 1403 3
1364 1365 4
1364 1404 3
1365 1366 4
1365 1405 2
1366 1367 3
1366 1406 4
1367 1368 2
1367 1407 4
1368 1369 2
1368 1408 4
1369 1370 1
1369 1409 1
1370 1371 4
1370 1410 1
1371 1372 2
1371 1411 3
1372 1373 4
1372 1412 2
1373 1374 4
1373 1413 1
1374 1375 4
1374 1414 3
1375 1376 3
1375 1415 3
1376 1377 4
1376 1416 5
1377 1378 4
1377 1417 1
1378 1379 4
1378 1418 1
1379 1380 2
1379 1419 5
1380 1381 4
1380 1420 3
1381 1382 3
1381 1421 3
1382 1383 4
1382 1422 2
1383 1384 4
1383 1423 3
1384 1385 3
1384 1424 4
1385 1386 3
1385 1425 3
1386 1387 1
1386 1426 5
1387 1388 1
1387 1427 1
1388 1389 5
1388 1428 4
1389 1390 4
1389 1429 4
1390 1391 5
1390 1430 1
1391 1392 5
1391 1431 5
1392 1393 1
1392 1432 2
1393 1394 4
1393 1433 2
1394 1395 1
1394 1434 1
1395 1396 3
1395 1435 1
1396 1397 4
1396 1436 2
1397 1398 3
1397 1437 4
1398 1399 1
1398 1438 5
1399 1400 5
1399 1439 4
1400 1440 5
1401 1402 3
1401 1441 4
1402 1403 4
1402 1442 2
1403 1404 2
1403 1443 5
1404 1405 5
1404 1444 1
1405 1406 1
1405 1445 4
1406 1407 3
1406 1446 1
1407 1408 2
1407 1447 2
1408 1409 4
1408 1448 5
1409 1410 2
1409 1449 2
1410 1411 1
1410 1450 3
1411 1412 4
1411 1451 4
1412 1413 5
1412 1452 3
1413 1414 3
1413 1453 2
1414 1415 5
1414 1454 4
1415 1416 4
1415 1455 1
1416 1417 5
1416 1456 1
1417 1418 5
1417 1457 1
1418 1419 4
1418 1458 3
1419 1420 2
1419 1459 5
1420 1421 3
1420 1460 4
1421 1422 1
1421 1461 4
1422 1423 2
1422 1462 4
1423 1424 1
1423 1463 5
1424 1425 4
1424 1464 5
1425 1426 2
1425 1465 5
1426 1427 4
1426 1466 1
1427 1428 3
1427 1467 1
1428 1429 3
1428 1468 5
1429 1430 1
1429 1469 1
1430 1431 1
1430 1470 1
1431 1432 4
1431 1471 2
1432 1433 1
1432 1472 2
1433 1434 3
1433 1473 2
1434 1435 1
1434 1474 4
1435 1436 5
1435 1475 4
1436 1437 4
1436 1476 2
1437 1438 2
1437 1477 4
1438 1439 5
1438 1478 1
1439 1440 5
1439 1479 1
1440 1480 5
1441 1442 5
1441 1481 3
1442 1443 2
1442 1482 4
1443 1444 2
1443 1483 5
1444 1445 5
1444 1484 5
1445 1446 1
1445 1485 4
1446 1447 1
1446 1486 2
1447 1448 2
1447 1487 3
1448 1449 3
1448 1488 1
1449 1450 1
1449 1489 5
1450 1451 1
1450 1490 3
1451 1452 4
1451 1491 3
1452 1453 2
1452 1492 2
1453 1454 5
1453 1493 3
1454 1455 1
1454 1494 1
1455 1456 2
1455 1495 4
1456 1457 2
1456 1496 5
1457 1458 1
1457 1497 1
1458 1459 4
1458 1498 1
1459 1460 2
1459 1499 2
1460 1461 1
1460 1500 4
1461 1462 1
1461 1501 1
1462 1463 2
1462 1502 2
1463 1464 2
1463 1503 5
1464 1465 1
1464 1504 1
1465 1466 4
1465 1505 5
1466 1467 4
1466 1506 3
1467 1468 2
1467 1507 5
1468 1469 1
1468 1508 2
1469 1470 2
1469 1509 5
1470 1471 4
1470 1510 3
1471 1472 5
1471 1511 2
1472 1473 1
1472 1512 1
1473 1474 3
1473 1513 1
1474 1475 1
1474 1514 4
1475 1476 5
1475 1515 5
1476 1477 2
1476 1516 5
1477 1478 2
1477 1517 2
1478 1479 2
1478 1518 2
1479 1480 4
1479 1519 5
1480 1520 3
1481 1482 3
1481 1521 5
1482 1483 2
1482 1522 2
1483 1484 5
1483 1523 5
1484 1485 5
1484 1524 1
1485 1486 1
1485 1525 1
1486 1487 4
1486 1526 4
1487 1488 1
1487 1527 2
1488 1489 4
1488 1528 4
1489 1490 1
1489 1529 5
1490 1491 5
1490 1530 3
1491 1492 1
1491 1531 2
1492 1493 2
1492 1532 5
1493 1494 4
1493 1533 3
1494 1495 2
1494 1534 2
1495 1496 2
1495 1535 5
1496 1497 2
1496 1536 3
1497 1498 4
1497 1537 5
1498 1499 2
1498 1538 2
1499 1500 5
1499 1539 5
1500 1501 5
1500 1540 2
1501 1502 5
1501 1541 4
1502 1503 5
1502 1542 4
1503 1504 2
1503 1543 4
1504 1505 5
1504 1544 2
1505 1506 2
1505 1545 3
1506 1507 2
1506 1546 2
1507 1508 1
1507 1547 5
1508 1509 1
1508 1548 1
1509 1510 3
1509 1549 3
1510 1511 3
1510 1550 3
1511 1512 4
1511 1551 2
1512 1513 3
1512 1552 1
1513 1514 4
1513 1553 4
1514 1515 4
1514 1554 4
1515 1516 5
1515 1555 3
1516 1517 1
1516 1556 5
1517 1518 2
1517 1557 4
1518 1519 5
1518 1558 2
1519 1520 5
1519 1559 5
1520 1560 3
1521 1522 1
1521 1561 3
1522 1523 2
1522 1562 2
1523 1524 5
1523 1563 2
1524 1525 5
1524 1564 5
1525 1526 4
1525 1565 4
1526 1527 5
1526 1566 2
1527 1528 5
1527 1567 5
1528 1529 2
1528 1568 4
1529 1530 3
1529 1569 1
1530 1531 3
1530 1570 4
1531 1532 1
1531 1571 4
1532 1533 2
1532 1572 5
1533 1534 2
1533 1573 5
1534 1535 2
1534 1574 2
1535 1536 5
1535 1575 1
1536 1537 5
1536 1576 1
1537 1538 3
1537 1577 2
1538 1539 5
1538 1578 5
1539 1540 1
1539 1579 5
1540 1541 4
1540 1580 5
1541 1542 2
1541 1581 2
1542 1543 4
1542 1582 2
1543 1544 1
1543 1583 3
1544 1545 5
1544 1584 3
1545 1546 2
1545 1585 2
1546 1547 1
1546 1586 1
1547 1548 1
1547 1587 5
1548 1549 2
1548 1588 2
1549 1550 2
1549 1589 3
1550 1551 4
1550 1590 5
1551 1552 4
1551 1591 4
1552 1553 2
1552 1592 1
1553 1554 1
1553 1593 1
1554 1555 1
1554 1594 4
1555 1556 5
1555 1595 5
1556 1557 4
1556 1596 4
1557 1558 5
1557 1597 1
1558 1559 2
1558 1598 5
1559 1560 1
1559 1599 1
1560 1600 5
1561 1562 2
1562 1563 1
1563 1564 4
1564 1565 1
1565 1566 4
1566 1567 3
1567 1568 2
1568 1569 3
1569 1570 5
1570 1571 5
1571 1572 5
1572 1573 5
1573 1574 4
1574 1575 3
1575 1576 5
1576 1577 2
1577 1578 1
1578 1579 5
1579 1580 2
1580 1581 2
1581 1582 3
1582 1583 3
1583 1584 5
1584 1585 4
1585 1586 4
1586 1587 2
1587 1588 2
1588 1589 2
1589 1590 4
1590 1591 4
1591 1592 1
1592 1593 5
1593 1594 4
1594 1595 2
1595 1596 3
1596 1597 4
1597 1598 5
1598 1599 4
1599 1600 5
1 1561 4
2 1562 1
3 1563 3
4 1564 1
5 1565 2
6 1566 5
7 1567 3
8 1568 1
9 1569 1
10 1570 4
11 1571 4
12 1572 2
13 1573 2
14 1574 4
15 1575 2
16 1576 5
17 1577 1
18 1578 4
19 1579 4
20 1580 2
21 1581 1
22 1582 3
23 1583 2
24 1584 1
25 1585 4
26 1586 2
27 1587 2
28 1588 3
29 1589 4
30 1590 3
31 1591 5
32 1592 4
33 1593 4
34 1594 4
35 1595 2
36 1596 3
37 1597 5
38 1598 2
39 1599 1
40 1600 5
1 40 3
41 80 4
81 120 1
121 160 2
161 200 2
201 240 1
241 280 4
281 320 5
321 360 1
361 400 3
401 440 3
441 480 2
481 520 4
521 560 3
561 600 2
601 640 1
641 680 5
681 720 1
721 760 2
761 800 5
801 840 2
841 880 4
881 920 1
921 960 1
961 1000 3
1001 1040 2
1041 1080 2
1081 1120 5
1121 1160 4
1161 1200 5
1201 1240 3
1241 1280 5
1281 1320 1
1321 1360 3
1361 1400 5
1401 1440 4
1441 1480 4
1481 1520 2
1521 1560 4
1561 1600 4
